knapPI_6_1000_100000_282
n 1000
c 24550340
z 24550340
time 5.3
1,64309,64309,1
2,22263,22263,1
3,64449,64449,1
4,54748,54748,1
5,68643,68643,1
6,54245,54245,1
7,79594,79594,1
8,16973,16973,1
9,97560,97560,1
10,35212,35212,1
11,63097,63097,1
12,76964,76964,1
13,25136,25136,1
14,93277,93277,1
15,83324,83324,1
16,2812,2812,1
17,69286,69286,1
18,774,774,1
19,782,782,1
20,9810,9810,1
21,63125,63125,1
22,87552,87552,1
23,28159,28159,1
24,26827,26827,1
25,38660,38660,1
26,10971,10971,1
27,57145,57145,1
28,85126,85126,1
29,23046,23046,1
30,10002,10002,1
31,21403,21403,1
32,99030,99030,1
33,41898,41898,1
34,89943,89943,1
35,34606,34606,1
36,63279,63279,1
37,94526,94526,1
38,83022,83022,1
39,86204,86204,1
40,47066,47066,1
41,90118,90118,1
42,15193,15193,1
43,70231,70231,1
44,51213,51213,1
45,99320,99320,1
46,17887,17887,1
47,97860,97860,1
48,22774,22774,1
49,60087,60087,1
50,68149,68149,1
51,23157,23157,1
52,46141,46141,1
53,72406,72406,1
54,35319,35319,1
55,60795,60795,1
56,42122,42122,1
57,63958,63958,1
58,66462,66462,1
59,19502,19502,1
60,50753,50753,1
61,83732,83732,1
62,77063,77063,1
63,63703,63703,1
64,50453,50453,1
65,6754,6754,1
66,56246,56246,1
67,27427,27427,1
68,93038,93038,1
69,34858,34858,1
70,52982,52982,1
71,70695,70695,1
72,82367,82367,1
73,60530,60530,1
74,73846,73846,1
75,89202,89202,1
76,63798,63798,1
77,65865,65865,1
78,1483,1483,1
79,52072,52072,1
80,30034,30034,1
81,88951,88951,1
82,41869,41869,1
83,5057,5057,1
84,8603,8603,1
85,33523,33523,1
86,97862,97862,1
87,75425,75425,1
88,46745,46745,1
89,66603,66603,1
90,86230,86230,1
91,73132,73132,1
92,45216,45216,1
93,58429,58429,1
94,30793,30793,1
95,63827,63827,1
96,23721,23721,1
97,55258,55258,1
98,59121,59121,1
99,70875,70875,1
100,53284,53284,1
101,27076,27076,1
102,81210,81210,1
103,85037,85037,1
104,99218,99218,1
105,96939,96939,1
106,84586,84586,1
107,26641,26641,1
108,43924,43924,1
109,75875,75875,1
110,50232,50232,1
111,26940,26940,1
112,6811,6811,1
113,32647,32647,1
114,27583,27583,1
115,98794,98794,1
116,30532,30532,1
117,35182,35182,1
118,10667,10667,1
119,80698,80698,1
120,4559,4559,1
121,31613,31613,1
122,58041,58041,1
123,95996,95996,1
124,977,977,1
125,13288,13288,1
126,27575,27575,1
127,2937,2937,1
128,44739,44739,1
129,40296,40296,1
130,27371,27371,1
131,58100,58100,1
132,4068,4068,1
133,46635,46635,1
134,21681,21681,1
135,36563,36563,1
136,18792,18792,1
137,99267,99267,1
138,470,470,1
139,7910,7910,1
140,66042,66042,1
141,26076,26076,1
142,12880,12880,1
143,81214,81214,1
144,67147,67147,1
145,69653,69653,1
146,14705,14705,1
147,3356,3356,1
148,24171,24171,1
149,67050,67050,1
150,89282,89282,1
151,77780,77780,1
152,90252,90252,1
153,139,139,1
154,74976,74976,1
155,30004,30004,1
156,10695,10695,1
157,92165,92165,1
158,5983,5983,1
159,75931,75931,1
160,88210,88210,1
161,199,199,1
162,61343,61343,1
163,86218,86218,1
164,25711,25711,1
165,30759,30759,1
166,94982,94982,1
167,17810,17810,1
168,98860,98860,1
169,56317,56317,1
170,35381,35381,1
171,12978,12978,1
172,84880,84880,1
173,22520,22520,1
174,75711,75711,1
175,46770,46770,1
176,23460,23460,1
177,82392,82392,1
178,51782,51782,1
179,8225,8225,1
180,66961,66961,1
181,98493,98493,1
182,20974,20974,1
183,53764,53764,1
184,50790,50790,1
185,64726,64726,1
186,15139,15139,1
187,77650,77650,1
188,37791,37791,1
189,73475,73475,1
190,43998,43998,1
191,61560,61560,1
192,588,588,1
193,70312,70312,1
194,50184,50184,1
195,28627,28627,1
196,89156,89156,1
197,84165,84165,1
198,16027,16027,1
199,73557,73557,1
200,95463,95463,1
201,15233,15233,1
202,44338,44338,1
203,21116,21116,1
204,13065,13065,1
205,42491,42491,1
206,9330,9330,1
207,98773,98773,1
208,33940,33940,1
209,44454,44454,1
210,20098,20098,1
211,36484,36484,1
212,64772,64772,1
213,53768,53768,1
214,20295,20295,1
215,85848,85848,1
216,33071,33071,1
217,64789,64789,1
218,43838,43838,1
219,13422,13422,1
220,57215,57215,1
221,55554,55554,1
222,8010,8010,1
223,36681,36681,1
224,88965,88965,1
225,32135,32135,1
226,3822,3822,1
227,3944,3944,1
228,82313,82313,1
229,11705,11705,1
230,91343,91343,1
231,6418,6418,1
232,13166,13166,1
233,40694,40694,1
234,77632,77632,1
235,3160,3160,1
236,94876,94876,1
237,2196,2196,1
238,12917,12917,1
239,72839,72839,1
240,82002,82002,1
241,55547,55547,1
242,95050,95050,1
243,1144,1144,1
244,99629,99629,1
245,35692,35692,1
246,82412,82412,1
247,54298,54298,1
248,25862,25862,1
249,52008,52008,1
250,42509,42509,1
251,21878,21878,1
252,1587,1587,1
253,64857,64857,1
254,57457,57457,1
255,20995,20995,1
256,75676,75676,1
257,25292,25292,1
258,7089,7089,1
259,50766,50766,1
260,78620,78620,1
261,45026,45026,1
262,72281,72281,1
263,56581,56581,1
264,94740,94740,1
265,35953,35953,1
266,56057,56057,1
267,54069,54069,1
268,3961,3961,1
269,2985,2985,1
270,29529,29529,1
271,19103,19103,1
272,49208,49208,1
273,44544,44544,1
274,86916,86916,1
275,14631,14631,1
276,24711,24711,1
277,79578,79578,1
278,46068,46068,1
279,26125,26125,1
280,98868,98868,1
281,81119,81119,1
282,84386,84386,1
283,61224,61224,1
284,81406,81406,1
285,24838,24838,1
286,41203,41203,1
287,24785,24785,1
288,78170,78170,1
289,72156,72156,1
290,61506,61506,1
291,31329,31329,1
292,23915,23915,1
293,61627,61627,1
294,71290,71290,1
295,38328,38328,1
296,52522,52522,1
297,11502,11502,1
298,29822,29822,1
299,55030,55030,1
300,69023,69023,1
301,13607,13607,1
302,81432,81432,1
303,51268,51268,1
304,73960,73960,1
305,66847,66847,1
306,28838,28838,1
307,28597,28597,1
308,99604,99604,1
309,99673,99673,1
310,74788,74788,1
311,62589,62589,1
312,48103,48103,1
313,75075,75075,1
314,13287,13287,1
315,28221,28221,1
316,15190,15190,1
317,41599,41599,1
318,95122,95122,1
319,95128,95128,1
320,77770,77770,1
321,25950,25950,1
322,89818,89818,1
323,46638,46638,1
324,17030,17030,1
325,20713,20713,1
326,83125,83125,1
327,57466,57466,1
328,23034,23034,1
329,66076,66076,1
330,9875,9875,1
331,23040,23040,1
332,64825,64825,1
333,89785,89785,1
334,88399,88399,1
335,63136,63136,1
336,6847,6847,1
337,49946,49946,1
338,97052,97052,1
339,55442,55442,1
340,88542,88542,1
341,34222,34222,1
342,28561,28561,1
343,50845,50845,1
344,90355,90355,1
345,52216,52216,1
346,42216,42216,1
347,3899,3899,1
348,82955,82955,1
349,88683,88683,1
350,6941,6941,1
351,58092,58092,1
352,99219,99219,1
353,23303,23303,1
354,47217,47217,1
355,96421,96421,1
356,93371,93371,1
357,13601,13601,1
358,29767,29767,1
359,23461,23461,1
360,83869,83869,1
361,74243,74243,1
362,40342,40342,1
363,68696,68696,1
364,2161,2161,1
365,78312,78312,1
366,50767,50767,1
367,10888,10888,1
368,42227,42227,1
369,49309,49309,1
370,6133,6133,1
371,59484,59484,1
372,53772,53772,1
373,62663,62663,1
374,24413,24413,1
375,44047,44047,1
376,61186,61186,1
377,25434,25434,1
378,52216,52216,1
379,7995,7995,1
380,18336,18336,1
381,46747,46747,1
382,72103,72103,1
383,2543,2543,1
384,19534,19534,1
385,40032,40032,1
386,62500,62500,1
387,11599,11599,1
388,57359,57359,1
389,11904,11904,1
390,8917,8917,1
391,92890,92890,1
392,92358,92358,1
393,47180,47180,1
394,82851,82851,1
395,52616,52616,1
396,77117,77117,1
397,28003,28003,1
398,76752,76752,1
399,46425,46425,1
400,9989,9989,1
401,58715,58715,1
402,90501,90501,1
403,26427,26427,1
404,38711,38711,1
405,80479,80479,1
406,169,169,1
407,21504,21504,1
408,36577,36577,1
409,47865,47865,1
410,94827,94827,1
411,2391,2391,1
412,25699,25699,1
413,10671,10671,1
414,60111,60111,1
415,11292,11292,1
416,39014,39014,1
417,67888,67888,1
418,85690,85690,1
419,59849,59849,1
420,68977,68977,1
421,95274,95274,1
422,62011,62011,1
423,29588,29588,1
424,34012,34012,1
425,99033,99033,1
426,39756,39756,1
427,37583,37583,1
428,97607,97607,1
429,67269,67269,1
430,10760,10760,1
431,54642,54642,1
432,65890,65890,1
433,68646,68646,1
434,65480,65480,1
435,63461,63461,1
436,65587,65587,1
437,61262,61262,1
438,96066,96066,1
439,21073,21073,1
440,23230,23230,1
441,41517,41517,1
442,39987,39987,1
443,3830,3830,1
444,39057,39057,1
445,45652,45652,1
446,1593,1593,1
447,24896,24896,1
448,85643,85643,1
449,96552,96552,1
450,85826,85826,1
451,83119,83119,1
452,87488,87488,1
453,44611,44611,1
454,64774,64774,1
455,82786,82786,1
456,80988,80988,1
457,64585,64585,1
458,13485,13485,1
459,24137,24137,1
460,92984,92984,1
461,6655,6655,1
462,76158,76158,1
463,43204,43204,1
464,7847,7847,1
465,84313,84313,1
466,93229,93229,1
467,65575,65575,1
468,8126,8126,1
469,11007,11007,1
470,70978,70978,1
471,59396,59396,1
472,24486,24486,1
473,25792,25792,1
474,26697,26697,1
475,28832,28832,1
476,12791,12791,1
477,58410,58410,1
478,95811,95811,1
479,63221,63221,1
480,45733,45733,1
481,31576,31576,1
482,83402,83402,1
483,9380,9380,1
484,58126,58126,1
485,52047,52047,1
486,40872,40872,1
487,22049,22049,1
488,18506,18506,1
489,35556,35556,1
490,83831,83831,1
491,96905,96905,1
492,87991,87991,1
493,79081,79081,1
494,83677,83677,1
495,52944,52944,1
496,82038,82038,1
497,28756,28756,1
498,4754,4754,1
499,8881,8881,1
500,82292,82292,1
501,79811,79811,1
502,79255,79255,1
503,11567,11567,1
504,98418,98418,1
505,82495,82495,1
506,88344,88344,1
507,82018,82018,1
508,48211,48211,1
509,805,805,1
510,69294,69294,1
511,40128,40128,1
512,44476,44476,1
513,99032,99032,1
514,427,427,1
515,20743,20743,1
516,43378,43378,1
517,34323,34323,1
518,29735,29735,1
519,72479,72479,1
520,10664,10664,1
521,60245,60245,1
522,3102,3102,1
523,8232,8232,1
524,62280,62280,1
525,44692,44692,1
526,94965,94965,1
527,59141,59141,1
528,52023,52023,1
529,85586,85586,1
530,74994,74994,1
531,23558,23558,1
532,42856,42856,1
533,54199,54199,1
534,26878,26878,1
535,13146,13146,1
536,69584,69584,1
537,96801,96801,1
538,47345,47345,1
539,15197,15197,1
540,96437,96437,1
541,34990,34990,1
542,59844,59844,1
543,45026,45026,1
544,66066,66066,1
545,96241,96241,1
546,45858,45858,1
547,72975,72975,1
548,45106,45106,1
549,33638,33638,1
550,60288,60288,1
551,74215,74215,1
552,55620,55620,1
553,79540,79540,1
554,74916,74916,1
555,93613,93613,1
556,85642,85642,1
557,42934,42934,1
558,81417,81417,1
559,78016,78016,1
560,95108,95108,1
561,22315,22315,1
562,30769,30769,1
563,51841,51841,1
564,47452,47452,1
565,54680,54680,1
566,73208,73208,1
567,65321,65321,1
568,50169,50169,1
569,72955,72955,1
570,99774,99774,1
571,11155,11155,1
572,59459,59459,1
573,92616,92616,1
574,20357,20357,1
575,42996,42996,1
576,25142,25142,1
577,41193,41193,1
578,84225,84225,1
579,20798,20798,1
580,3250,3250,1
581,8553,8553,1
582,29475,29475,1
583,97390,97390,1
584,47416,47416,1
585,33686,33686,1
586,95837,95837,1
587,95575,95575,1
588,26794,26794,1
589,86143,86143,1
590,18066,18066,1
591,38005,38005,1
592,45894,45894,1
593,42133,42133,1
594,96627,96627,1
595,17423,17423,1
596,3995,3995,1
597,85937,85937,1
598,44197,44197,1
599,89810,89810,1
600,94371,94371,1
601,18123,18123,1
602,75029,75029,1
603,66698,66698,1
604,63877,63877,1
605,59813,59813,1
606,63679,63679,1
607,70861,70861,1
608,51548,51548,1
609,98176,98176,1
610,57780,57780,1
611,47109,47109,1
612,84076,84076,1
613,81259,81259,1
614,95771,95771,1
615,86607,86607,1
616,60260,60260,1
617,53043,53043,1
618,79389,79389,1
619,68256,68256,1
620,67468,67468,1
621,54449,54449,1
622,56907,56907,1
623,18414,18414,1
624,6713,6713,1
625,97680,97680,1
626,24050,24050,1
627,721,721,1
628,73169,73169,1
629,89835,89835,1
630,74414,74414,1
631,81347,81347,1
632,17994,17994,1
633,46123,46123,1
634,14251,14251,1
635,57542,57542,1
636,51322,51322,1
637,23188,23188,1
638,35321,35321,1
639,96167,96167,1
640,17464,17464,1
641,81141,81141,1
642,37442,37442,1
643,99930,99930,1
644,77298,77298,1
645,16436,16436,1
646,14833,14833,1
647,34647,34647,1
648,17188,17188,1
649,55538,55538,1
650,18068,18068,1
651,27432,27432,1
652,56951,56951,1
653,91338,91338,1
654,30745,30745,1
655,43126,43126,1
656,56489,56489,1
657,41514,41514,1
658,85395,85395,1
659,59175,59175,1
660,58646,58646,1
661,41027,41027,1
662,74999,74999,1
663,60972,60972,1
664,10141,10141,1
665,81947,81947,1
666,7116,7116,1
667,20114,20114,1
668,5127,5127,1
669,86177,86177,1
670,10742,10742,1
671,77360,77360,1
672,9449,9449,1
673,54564,54564,1
674,60167,60167,1
675,96017,96017,1
676,1149,1149,1
677,71293,71293,1
678,78780,78780,1
679,31064,31064,1
680,1285,1285,1
681,68851,68851,1
682,52371,52371,1
683,27209,27209,1
684,49203,49203,1
685,9085,9085,1
686,41782,41782,1
687,71067,71067,1
688,83611,83611,1
689,33403,33403,1
690,98890,98890,1
691,2965,2965,1
692,59270,59270,1
693,45555,45555,1
694,69745,69745,1
695,67817,67817,1
696,77595,77595,1
697,87851,87851,1
698,70195,70195,1
699,56733,56733,1
700,28238,28238,1
701,91647,91647,1
702,34571,34571,1
703,91916,91916,1
704,15149,15149,1
705,73104,73104,1
706,28586,28586,1
707,2562,2562,1
708,78376,78376,1
709,57923,57923,1
710,12330,12330,1
711,37943,37943,1
712,52290,52290,1
713,26593,26593,1
714,2797,2797,1
715,20859,20859,1
716,22774,22774,1
717,97019,97019,1
718,74875,74875,1
719,2793,2793,1
720,88022,88022,1
721,40986,40986,1
722,70,70,1
723,88831,88831,1
724,5456,5456,1
725,96342,96342,1
726,56275,56275,1
727,24245,24245,1
728,68459,68459,1
729,24027,24027,1
730,71973,71973,1
731,60243,60243,1
732,27096,27096,1
733,76578,76578,1
734,63649,63649,1
735,35082,35082,1
736,30357,30357,1
737,42632,42632,1
738,95013,95013,1
739,6223,6223,1
740,74792,74792,1
741,90632,90632,1
742,54392,54392,1
743,13238,13238,1
744,96655,96655,1
745,13309,13309,1
746,74157,74157,1
747,56517,56517,1
748,2020,2020,1
749,57526,57526,1
750,89303,89303,1
751,54225,54225,1
752,76639,76639,1
753,80252,80252,1
754,19557,19557,1
755,64078,64078,1
756,31835,31835,1
757,82600,82600,1
758,58286,58286,1
759,47663,47663,1
760,15206,15206,1
761,61590,61590,1
762,92343,92343,1
763,15178,15178,1
764,28937,28937,1
765,6060,6060,1
766,59932,59932,1
767,84559,84559,1
768,37591,37591,1
769,67550,67550,1
770,4942,4942,1
771,21444,21444,1
772,82294,82294,1
773,2523,2523,1
774,81664,81664,1
775,87266,87266,1
776,73415,73415,1
777,68619,68619,1
778,84494,84494,1
779,6842,6842,1
780,93069,93069,1
781,95829,95829,1
782,89195,89195,1
783,29658,29658,1
784,82829,82829,1
785,84529,84529,1
786,30067,30067,1
787,76826,76826,1
788,38639,38639,1
789,12643,12643,1
790,6559,6559,1
791,21202,21202,1
792,90132,90132,1
793,10876,10876,1
794,88900,88900,1
795,59155,59155,1
796,82899,82899,1
797,62128,62128,1
798,30861,30861,1
799,54581,54581,1
800,14603,14603,1
801,17879,17879,1
802,31061,31061,1
803,36487,36487,1
804,38036,38036,1
805,94511,94511,1
806,60852,60852,1
807,16719,16719,1
808,73641,73641,1
809,78533,78533,1
810,31900,31900,1
811,44000,44000,1
812,80337,80337,1
813,17716,17716,1
814,20113,20113,1
815,5425,5425,1
816,33517,33517,1
817,23712,23712,1
818,32786,32786,1
819,16023,16023,1
820,29541,29541,1
821,94349,94349,1
822,15020,15020,1
823,10294,10294,1
824,46178,46178,1
825,87706,87706,1
826,8156,8156,1
827,19491,19491,1
828,80441,80441,1
829,30502,30502,1
830,95425,95425,1
831,13273,13273,1
832,894,894,1
833,98185,98185,1
834,41443,41443,1
835,38536,38536,1
836,24835,24835,1
837,53451,53451,1
838,98788,98788,1
839,97260,97260,1
840,13888,13888,1
841,20845,20845,1
842,36652,36652,1
843,19811,19811,1
844,7664,7664,1
845,21093,21093,1
846,54196,54196,1
847,36596,36596,1
848,40703,40703,1
849,20749,20749,1
850,43545,43545,1
851,79501,79501,1
852,39569,39569,1
853,10120,10120,1
854,41318,41318,1
855,54906,54906,1
856,9017,9017,1
857,47050,47050,1
858,52313,52313,1
859,12127,12127,1
860,8612,8612,1
861,46585,46585,1
862,24279,24279,1
863,89669,89669,1
864,49083,49083,1
865,18685,18685,1
866,84460,84460,1
867,95739,95739,1
868,60442,60442,1
869,42663,42663,1
870,32881,32881,1
871,63942,63942,1
872,29789,29789,1
873,5414,5414,1
874,94907,94907,1
875,28048,28048,1
876,60587,60587,1
877,32434,32434,1
878,31955,31955,1
879,99656,99656,1
880,57211,57211,1
881,51375,51375,1
882,5075,5075,1
883,85826,85826,1
884,62716,62716,1
885,64472,64472,1
886,51144,51144,1
887,94449,94449,1
888,42186,42186,1
889,90557,90557,1
890,91091,91091,1
891,35711,35711,1
892,45720,45720,1
893,72975,72975,1
894,5156,5156,1
895,35,35,1
896,81734,81734,1
897,9388,9388,1
898,11583,11583,1
899,80216,80216,1
900,44994,44994,1
901,31191,31191,1
902,69086,69086,1
903,70085,70085,1
904,77204,77204,1
905,11354,11354,1
906,20813,20813,1
907,1367,1367,1
908,8377,8377,1
909,12287,12287,1
910,82143,82143,1
911,73080,73080,1
912,78459,78459,1
913,55833,55833,1
914,62155,62155,1
915,52811,52811,1
916,42106,42106,1
917,31804,31804,1
918,82296,82296,1
919,85072,85072,1
920,99030,99030,1
921,99523,99523,1
922,98020,98020,1
923,2297,2297,1
924,78411,78411,1
925,65048,65048,1
926,66140,66140,1
927,45779,45779,1
928,96359,96359,1
929,49832,49832,1
930,60396,60396,1
931,9873,9873,1
932,94942,94942,1
933,35649,35649,1
934,28514,28514,1
935,85651,85651,1
936,12277,12277,1
937,51723,51723,1
938,90226,90226,1
939,9102,9102,1
940,35520,35520,1
941,64555,64555,1
942,62993,62993,1
943,33165,33165,1
944,58487,58487,1
945,29497,29497,1
946,62650,62650,1
947,55650,55650,1
948,19884,19884,1
949,41184,41184,1
950,34929,34929,1
951,7702,7702,1
952,36767,36767,1
953,70056,70056,1
954,85337,85337,1
955,26375,26375,1
956,66897,66897,1
957,42345,42345,1
958,39427,39427,1
959,74111,74111,1
960,79603,79603,1
961,50759,50759,1
962,34989,34989,1
963,91277,91277,1
964,31071,31071,1
965,66775,66775,1
966,60658,60658,1
967,9861,9861,1
968,53588,53588,1
969,37577,37577,1
970,39396,39396,1
971,20926,20926,1
972,62461,62461,1
973,64149,64149,1
974,76500,76500,1
975,44944,44944,1
976,20586,20586,1
977,69552,69552,1
978,89861,89861,1
979,81142,81142,1
980,99680,99680,1
981,56171,56171,1
982,129,129,1
983,45700,45700,1
984,65812,65812,1
985,28849,28849,1
986,77684,77684,1
987,77627,77627,1
988,56863,56863,1
989,57902,57902,1
990,43102,43102,1
991,58197,58197,1
992,62218,62218,1
993,47904,47904,1
994,23476,23476,1
995,56718,56718,1
996,99828,99828,1
997,9128,9128,1
998,80616,80616,1
999,55165,55165,1
1000,42455,42455,1
